3 
4 
5  09 24 39 54 
6  09 21 28 36 43 49 57 
7  04 12 19 27 34 42 49 57 
8  04 12 19 27 34 42 49 57 
9  04 12 19 27 34 42 49 57 
10  04 12 19 27 34 42 49 57 
11  04 12 19 27 34 42 49 57 
12  04 12 19 27 34 42 49 57 
13  04 11 18 26 33 41 48 56 
14  03 11 18 26 33 41 48 56 
15  03 10 18 25 33 40 48 55 
16  03 10 18 25 33 40 48 55 
17  03 10 18 25 33 40 48 55 
18  03 10 18 25 33 40 48 55 
19  03 10 19 27 35 42 50 58 
20  05 12 20 27 40 55 
21  10 25 40 55 
22  10 23 38 51 
23 
